
Gurobi 11.0.3 (linux64) logging started Sat Nov 23 19:53:54 2024

Set parameter LogFile to value "/home/yihong/Coding/OR_SUC/SUC_results_bigM100000_thread4/case24_ieee_rts_theta0.1_epsilon0.025_gurobi_seed1160000_num_gen100_N_WDR50_load_scaling_factor1_proposed_T24quadra_cost.txt"
Set parameter TimeLimit to value 3600
Gurobi Optimizer version 11.0.3 build v11.0.3rc0 (linux64 - "Ubuntu 20.04.6 LTS")

CPU model: AMD EPYC 7532 32-Core Processor, instruction set [SSE2|AVX|AVX2]
Thread count: 64 physical cores, 128 logical processors, using up to 4 threads

Optimize a model with 50020 rows, 29811 columns and 506326 nonzeros
Model fingerprint: 0xa4a59c69
Model has 2400 quadratic constraints
Variable types: 27411 continuous, 2400 integer (2400 binary)
Coefficient statistics:
  Matrix range     [3e-04, 3e+03]
  QMatrix range    [2e-03, 8e-03]
  QLMatrix range   [6e-03, 6e+01]
  Objective range  [1e+00, 1e+00]
  Bounds range     [1e+00, 1e+00]
  RHS range        [1e+00, 9e+03]
Presolve removed 40328 rows and 12928 columns
Presolve time: 0.18s
Presolved: 9692 rows, 16883 columns, 52385 nonzeros
Presolved model has 2400 quadratic constraint(s)
Variable types: 14483 continuous, 2400 integer (2400 binary)

Root relaxation: objective 3.418493e+04, 7227 iterations, 0.16 seconds (0.22 work units)

    Nodes    |    Current Node    |     Objective Bounds      |     Work
 Expl Unexpl |  Obj  Depth IntInf | Incumbent    BestBd   Gap | It/Node Time

H    0     0                    636469.13629 34184.9299  94.6%     -    0s
*    0     0               0    636469.13629 34184.9299  94.6%     -    0s
     0     0 295337.936    0  843 636469.136 295337.936  53.6%     -    0s
     0     0 586117.488    0  474 636469.136 586117.488  7.91%     -    1s
     0     0 586219.247    0   40 636469.136 586219.247  7.90%     -    1s
     0     0 586343.666    0   37 636469.136 586343.666  7.88%     -    1s
     0     0 586349.147    0   38 636469.136 586349.147  7.87%     -    1s
     0     0 586350.807    0   38 636469.136 586350.807  7.87%     -    1s
     0     0 586351.455    0   38 636469.136 586351.455  7.87%     -    1s
     0     2 586351.455    0   38 636469.136 586351.455  7.87%     -    2s
H  221   252                    586978.54092 586368.359  0.10%  29.2    4s
*  221   252              60    586978.54092 586368.359  0.10%  29.2    4s
   278   275 586574.825   10   27 586978.541 586368.359  0.10%  31.0    5s
   473   358 586655.423   23   56 586978.541 586374.354  0.10%  28.1   10s
   549   415 586397.332   17   36 586978.541 586382.795  0.10%  63.2   15s
H  613   437                    586671.00506 586384.605  0.05%  67.2   16s

Cutting planes:
  Gomory: 5
  Lift-and-project: 1
  Implied bound: 44
  MIR: 43
  Flow cover: 27
  RLT: 71

Explored 618 nodes (61542 simplex iterations) in 16.14 seconds (18.05 work units)
Thread count was 4 (of 128 available processors)

Solution count 3: 586671 586979 636469 

Optimal solution found (tolerance 1.00e-03)
Warning: max constraint violation (9.2889e-09) exceeds tolerance
Best objective 5.866710050585e+05, best bound 5.863846050552e+05, gap 0.0488%
